NAME : GeneratedProblem
COMMENT : SVGCrosshatch
TYPE : TSP
DIMENSION : 24
EDGE_WEIGHT_TYPE : EUC_2D
NODE_COORD_SECTION
1 3900 9800
2 3900 9900
3 4000 9800
4 4000 9900
5 4000 10000
6 4000 10100
7 4100 9800
8 4100 9900
9 4100 10000
10 4100 10100
11 4100 10200
12 4100 10300
13 4200 9800
14 4200 9900
15 4200 10000
16 4200 10100
17 4200 10200
18 4200 10300
19 4300 9800
20 4300 9900
21 4300 10000
22 4300 10100
23 4400 9800
24 4400 9900
EOF
